NAME : ClusterId_1007 
COMMENT : (Gillet and Johnson) 
TYPE : CVRP 
DIMENSION : 19 
EDGE_WEIGHT_TYPE : EUC_2D 
CAPACITY : 500 
NODE_COORD_SECTION 
1007 1835 2075 
452 1509 718 
82 1398 1174 
424 1647 768 
57 1705 711 
637 1528 1107 
710 1568 1396 
41 1590 1411 
64 1854 1008 
357 1734 1231 
118 1557 2009 
674 1504 2236 
198 1818 1593 
987 1452 2621 
263 1811 1772 
398 1573 2562 
701 1830 1818 
519 1743 2107 
599 1611 2867 
DEMAND_SECTION 
1007 790
452 31
82 42
424 27
57 40
637 50
710 41
41 32
64 56
357 49
118 35
674 27
198 51
987 56
263 51
398 54
701 39
519 53
599 32
DEPOT_SECTION 
1007
 -1
EOF